\ LP format - for model browsing. Use MPS format to capture full model detail.
Maximize
  nu[0] + nu[1] + nu[2] + nu[3] + 0.9487729036781154 eta
   - 0.2314814814814815 x[0,0] - 0.0173611111111111 x[0,1]
   - 0.00115740740740741 x[0,2] - 0.1446759259259259 x[1,0]
   - 0.0868055555555556 x[1,1] - 0.0173611111111111 x[1,2]
   - 0.00115740740740741 x[1,3] - 0.0740740740740741 x[2,0]
   - 0.1111111111111111 x[2,1] - 0.0555555555555556 x[2,2]
   - 0.00925925925925926 x[2,3] - 0.08575 x[3,0] - 0.11025 x[3,1]
   - 0.04725 x[3,2] - 0.00675 x[3,3]
Subject To
 R0: pi[0] + pi[1] + pi[2] + pi[3] = 1
 R1: 1504.999999996312 pi[0] - nu[0] - 2 eta + z[0,0] >= 0
 R2: 1481.784836402352 pi[0] - nu[0] - 2 eta + z[0,1] >= 0
 R3: 1447.456408105474 pi[0] - nu[0] - 2 eta + z[0,2] >= 0
 R4: 1489.999999996312 pi[1] - nu[1] - 2 eta + z[1,0] >= 0
 R5: 1466.784836402352 pi[1] - nu[1] - 2 eta + z[1,1] >= 0
 R6: 1432.456408105474 pi[1] - nu[1] - 2 eta + z[1,2] >= 0
 R7: 1388.095743387878 pi[1] - nu[1] - 2 eta + z[1,3] >= 0
 R8: 1464.999999996312 pi[2] - nu[2] - 2 eta + z[2,0] >= 0
 R9: 1441.784836402352 pi[2] - nu[2] - 2 eta + z[2,1] >= 0
 R10: 1407.456408105474 pi[2] - nu[2] - 2 eta + z[2,2] >= 0
 R11: 1363.095743387878 pi[2] - nu[2] - 2 eta + z[2,3] >= 0
 R12: 1439.999999996312 pi[3] - nu[3] - 2 eta + z[3,0] >= 0
 R13: 1416.784836402352 pi[3] - nu[3] - 2 eta + z[3,1] >= 0
 R14: 1382.456408105474 pi[3] - nu[3] - 2 eta + z[3,2] >= 0
 R15: 1338.095743387878 pi[3] - nu[3] - 2 eta + z[3,3] >= 0
 R16: - 0.5 eta + 0.5 x[0,0] + x1[0,0] = 0
 R17: - 0.5 eta + 0.5 x[0,1] + x1[0,1] = 0
 R18: - 0.5 eta + 0.5 x[0,2] + x1[0,2] = 0
 R19: - 0.5 eta + 0.5 x[1,0] + x1[1,0] = 0
 R20: - 0.5 eta + 0.5 x[1,1] + x1[1,1] = 0
 R21: - 0.5 eta + 0.5 x[1,2] + x1[1,2] = 0
 R22: - 0.5 eta + 0.5 x[1,3] + x1[1,3] = 0
 R23: - 0.5 eta + 0.5 x[2,0] + x1[2,0] = 0
 R24: - 0.5 eta + 0.5 x[2,1] + x1[2,1] = 0
 R25: - 0.5 eta + 0.5 x[2,2] + x1[2,2] = 0
 R26: - 0.5 eta + 0.5 x[2,3] + x1[2,3] = 0
 R27: - 0.5 eta + 0.5 x[3,0] + x1[3,0] = 0
 R28: - 0.5 eta + 0.5 x[3,1] + x1[3,1] = 0
 R29: - 0.5 eta + 0.5 x[3,2] + x1[3,2] = 0
 R30: - 0.5 eta + 0.5 x[3,3] + x1[3,3] = 0
 R31: - 0.5 eta - 0.5 x[0,0] + x2[0,0] = 0
 R32: - 0.5 eta - 0.5 x[0,1] + x2[0,1] = 0
 R33: - 0.5 eta - 0.5 x[0,2] + x2[0,2] = 0
 R34: - 0.5 eta - 0.5 x[1,0] + x2[1,0] = 0
 R35: - 0.5 eta - 0.5 x[1,1] + x2[1,1] = 0
 R36: - 0.5 eta - 0.5 x[1,2] + x2[1,2] = 0
 R37: - 0.5 eta - 0.5 x[1,3] + x2[1,3] = 0
 R38: - 0.5 eta - 0.5 x[2,0] + x2[2,0] = 0
 R39: - 0.5 eta - 0.5 x[2,1] + x2[2,1] = 0
 R40: - 0.5 eta - 0.5 x[2,2] + x2[2,2] = 0
 R41: - 0.5 eta - 0.5 x[2,3] + x2[2,3] = 0
 R42: - 0.5 eta - 0.5 x[3,0] + x2[3,0] = 0
 R43: - 0.5 eta - 0.5 x[3,1] + x2[3,1] = 0
 R44: - 0.5 eta - 0.5 x[3,2] + x2[3,2] = 0
 R45: - 0.5 eta - 0.5 x[3,3] + x2[3,3] = 0
 qc0: [ z[0,0] ^2 + x1[0,0] ^2 - x2_abs[0,0] ^2 ] <= 0
 qc1: [ z[0,1] ^2 + x1[0,1] ^2 - x2_abs[0,1] ^2 ] <= 0
 qc2: [ z[0,2] ^2 + x1[0,2] ^2 - x2_abs[0,2] ^2 ] <= 0
 qc3: [ z[1,0] ^2 + x1[1,0] ^2 - x2_abs[1,0] ^2 ] <= 0
 qc4: [ z[1,1] ^2 + x1[1,1] ^2 - x2_abs[1,1] ^2 ] <= 0
 qc5: [ z[1,2] ^2 + x1[1,2] ^2 - x2_abs[1,2] ^2 ] <= 0
 qc6: [ z[1,3] ^2 + x1[1,3] ^2 - x2_abs[1,3] ^2 ] <= 0
 qc7: [ z[2,0] ^2 + x1[2,0] ^2 - x2_abs[2,0] ^2 ] <= 0
 qc8: [ z[2,1] ^2 + x1[2,1] ^2 - x2_abs[2,1] ^2 ] <= 0
 qc9: [ z[2,2] ^2 + x1[2,2] ^2 - x2_abs[2,2] ^2 ] <= 0
 qc10: [ z[2,3] ^2 + x1[2,3] ^2 - x2_abs[2,3] ^2 ] <= 0
 qc11: [ z[3,0] ^2 + x1[3,0] ^2 - x2_abs[3,0] ^2 ] <= 0
 qc12: [ z[3,1] ^2 + x1[3,1] ^2 - x2_abs[3,1] ^2 ] <= 0
 qc13: [ z[3,2] ^2 + x1[3,2] ^2 - x2_abs[3,2] ^2 ] <= 0
 qc14: [ z[3,3] ^2 + x1[3,3] ^2 - x2_abs[3,3] ^2 ] <= 0
Bounds
 nu[0] free
 nu[1] free
 nu[2] free
 nu[3] free
 x1[0,0] free
 x1[0,1] free
 x1[0,2] free
 x1[1,0] free
 x1[1,1] free
 x1[1,2] free
 x1[1,3] free
 x1[2,0] free
 x1[2,1] free
 x1[2,2] free
 x1[2,3] free
 x1[3,0] free
 x1[3,1] free
 x1[3,2] free
 x1[3,3] free
 x2[0,0] free
 x2[0,1] free
 x2[0,2] free
 x2[1,0] free
 x2[1,1] free
 x2[1,2] free
 x2[1,3] free
 x2[2,0] free
 x2[2,1] free
 x2[2,2] free
 x2[2,3] free
 x2[3,0] free
 x2[3,1] free
 x2[3,2] free
 x2[3,3] free
General Constraints
 GC0: x2_abs[0,0] = ABS ( x2[0,0] )
 GC1: x2_abs[0,1] = ABS ( x2[0,1] )
 GC2: x2_abs[0,2] = ABS ( x2[0,2] )
 GC3: x2_abs[1,0] = ABS ( x2[1,0] )
 GC4: x2_abs[1,1] = ABS ( x2[1,1] )
 GC5: x2_abs[1,2] = ABS ( x2[1,2] )
 GC6: x2_abs[1,3] = ABS ( x2[1,3] )
 GC7: x2_abs[2,0] = ABS ( x2[2,0] )
 GC8: x2_abs[2,1] = ABS ( x2[2,1] )
 GC9: x2_abs[2,2] = ABS ( x2[2,2] )
 GC10: x2_abs[2,3] = ABS ( x2[2,3] )
 GC11: x2_abs[3,0] = ABS ( x2[3,0] )
 GC12: x2_abs[3,1] = ABS ( x2[3,1] )
 GC13: x2_abs[3,2] = ABS ( x2[3,2] )
 GC14: x2_abs[3,3] = ABS ( x2[3,3] )
End
